(declare-fun X_0 () Real)
(declare-fun X_1 () Real)
(declare-fun Y_0 () Real)
(declare-fun Y_1 () Real)
(declare-fun Y_2 () Real)

(assert (<= X_0 -0.5))
(assert (>= X_0 -0.4))
(assert (<= X_1 2.7))
(assert (>= X_1 2.5))

(assert (<= Y_0 8.63))
(assert (>= Y_0 8.6))
(assert (<= Y_1 9.1))
(assert (>= Y_1 9.0))
(assert (<= Y_2 9.1))
(assert (>= Y_2 9.0))

